! revPBE def2-SVP def2/J Hirshfeld CHELPG RIJONX D3 Energy KeepDens
%pal
nprocs 4
end
%chelpg
DIPOLE TRUE
end
%plots
Format Gaussian_Cube
ElDens("eldens.cube");
end
%maxcore 3000
%elprop
Polar 1
Quadrupole True
end
* xyzfile 0 1 geometry.xyz

# COSMO calculation for sigma profile
$new_job
! revPBE def2-SVP def2/J CPCMC Hirshfeld CHELPG RIJONX D3 Energy
%base "property_cosmo"
%chelpg
DIPOLE TRUE
end
%pal
nprocs 4
end
%maxcore 3000
* xyzfile 0 1 geometry.xyz
